;  depth   = 3
;  nconst  = 6
;  assertions = 5
;  timeout = 2500
;  time    = {'smt_solvers/QF_S/z3seq/': 0.16229534149169922, 'smt_solvers/QF_S/z3str3/': 0.1477653980255127, 'smt_solvers/QF_S/cvc4/': 875.8861231803894, 'smt_solvers/QF_S/z3str3fed/': 0.2183234691619873}
;  score   = 875.6677997112274
;  stdout  = {'smt_solvers/QF_S/z3seq/': 'unsat', 'smt_solvers/QF_S/z3str3/': 'unsat', 'smt_solvers/QF_S/cvc4/': 'unsat', 'smt_solvers/QF_S/z3str3fed/': 'unsat'}
(set-logic QF_S)(declare-fun var0 () String)(declare-fun var1 () String)(declare-fun var2 () String)(declare-fun var3 () String)(declare-fun var4 () String)(declare-fun var5 () String)(declare-fun var6 () Int)(declare-fun var7 () Int)(declare-fun var8 () Int)(declare-fun var9 () Int)(declare-fun var10 () Int)(declare-fun var11 () Int)(declare-fun var12 () Bool)(declare-fun var13 () Bool)(declare-fun var14 () Bool)(declare-fun var15 () Bool)(declare-fun var16 () Bool)(declare-fun var17 () Bool)(assert (str.suffixof (str.replace "o.ZhlDWQ'Q" var2 "OEPW""cs7_l") (str.substr (str.substr var4 var11 var10) (str.indexof var2 var1 var10) (str.indexof var1 var1 (str.indexof (str.at var4 (str.len (str.replace var5 var0 var1))) (str.at var5 var9) (str.to.int var3))))))(assert (str.prefixof var4 var3))(assert (str.in.re (str.replace "B1Yz2,Rfvf" "B1Yz2,Rfvf" "B1Yz2,Rfvf") (re.* re.allchar)))(assert (str.in.re (str.replace var4 var2 var2) (re.* re.allchar)))(assert (str.suffixof var3 var2))(check-sat)